c This cnf file is generated with the following input: k = 3, n = 150, r = 0.2
p cnf 150 30
-98 99 -70 0
-116 9 74 0
-62 -80 95 0
24 -44 111 0
-41 45 -47 0
96 41 60 0
69 134 118 0
3 -140 -96 0
-3 -68 77 0
120 138 -32 0
24 47 79 0
-51 -102 -76 0
89 -122 -76 0
-4 -59 11 0
2 6 41 0
-98 -58 -141 0
-22 -59 138 0
-40 -120 -44 0
-5 -86 138 0
-141 61 -46 0
-20 -37 136 0
18 36 139 0
117 -54 110 0
-21 135 -123 0
67 -42 108 0
-19 -11 62 0
-2 -24 -41 0
-4 35 139 0
-130 -84 -137 0
52 90 127 0
